NAME          ClpDefau
ROWS
 N  OBJROW
 L  R_176_0
 L  R_176_1
 L  R_176_2
 L  R_176_3
 L  R_176_4
 L  R_176_5
 L  R_176_6
 L  R_176_7
 L  R_176_8
 L  R_176_9
 L  R_176_10
 L  R_176_11
 L  R_176_12
 L  R_176_13
 L  R_176_14
 L  R_176_15
 L  R_176_16
 L  R_176_17
 L  R_176_18
 L  R_176_19
 L  R_176_20
 L  R_176_21
 L  R_176_22
 L  R_176_23
 L  R_176_24
 L  R_176_25
 L  R_176_26
 L  R_176_27
 L  R_176_28
 L  R_176_29
 L  R_176_30
 L  R_176_31
COLUMNS
    x_0       OBJROW     -8.           R_176_1   9.          
    x_0       R_176_3   8.             R_176_4   1.          
    x_0       R_176_6   6.             R_176_8   9.          
    x_0       R_176_9   3.             R_176_10  1.          
    x_0       R_176_11  3.             R_176_12  9.          
    x_0       R_176_13  9.             R_176_14  3.          
    x_0       R_176_16  7.             R_176_17  6.          
    x_0       R_176_18  6.             R_176_19  8.          
    x_0       R_176_20  7.             R_176_21  8.          
    x_0       R_176_22  4.             R_176_23  8.          
    x_0       R_176_24  6.             R_176_25  8.          
    x_0       R_176_27  10.            R_176_28  9.          
    x_0       R_176_29  8.             R_176_30  6.          
    x_1       OBJROW     -12.          R_176_2   8.          
    x_1       R_176_3   9.             R_176_4   9.          
    x_1       R_176_5   10.            R_176_6   4.          
    x_1       R_176_7   6.             R_176_9   2.          
    x_1       R_176_10  6.             R_176_11  4.          
    x_1       R_176_13  10.            R_176_14  5.          
    x_1       R_176_15  2.             R_176_16  3.          
    x_1       R_176_18  4.             R_176_20  1.          
    x_1       R_176_21  6.             R_176_22  1.          
    x_1       R_176_23  2.             R_176_24  1.          
    x_1       R_176_25  3.             R_176_27  3.          
    x_1       R_176_28  1.             R_176_29  1.          
    x_1       R_176_30  4.             R_176_31  1.          
    x_2       OBJROW     -11.          R_176_0   10.         
    x_2       R_176_1   2.             R_176_2   8.          
    x_2       R_176_3   8.             R_176_4   10.         
    x_2       R_176_5   5.             R_176_6   10.         
    x_2       R_176_7   8.             R_176_9   6.          
    x_2       R_176_11  3.             R_176_12  7.          
    x_2       R_176_13  6.             R_176_14  6.          
    x_2       R_176_15  10.            R_176_17  9.          
    x_2       R_176_19  5.             R_176_20  3.          
    x_2       R_176_21  8.             R_176_22  9.          
    x_2       R_176_24  1.             R_176_26  8.          
    x_2       R_176_27  2.             R_176_28  10.         
    x_2       R_176_29  10.            R_176_30  5.          
    x_2       R_176_31  5.          
    x_3       OBJROW     -47.          R_176_0   1.          
    x_3       R_176_1   7.             R_176_2   2.          
    x_3       R_176_3   2.             R_176_4   2.          
    x_3       R_176_5   4.             R_176_6   1.          
    x_3       R_176_7   8.             R_176_8   9.          
    x_3       R_176_9   4.             R_176_10  4.          
    x_3       R_176_11  7.             R_176_12  1.          
    x_3       R_176_13  1.             R_176_16  2.          
    x_3       R_176_17  8.             R_176_18  9.          
    x_3       R_176_20  6.             R_176_21  6.          
    x_3       R_176_22  7.             R_176_23  5.          
    x_3       R_176_24  1.             R_176_26  8.          
    x_3       R_176_27  10.            R_176_28  1.          
    x_3       R_176_29  6.             R_176_30  2.          
    x_3       R_176_31  8.          
    x_4       OBJROW     -22.          R_176_0   10.         
    x_4       R_176_1   8.             R_176_2   6.          
    x_4       R_176_3   2.             R_176_4   2.          
    x_4       R_176_5   6.             R_176_6   4.          
    x_4       R_176_7   1.             R_176_8   8.          
    x_4       R_176_9   8.             R_176_10  8.          
    x_4       R_176_11  6.             R_176_12  9.          
    x_4       R_176_14  7.             R_176_17  4.          
    x_4       R_176_18  10.            R_176_19  7.          
    x_4       R_176_20  2.             R_176_21  10.         
    x_4       R_176_22  6.             R_176_23  9.          
    x_4       R_176_24  7.             R_176_26  1.          
    x_4       R_176_27  5.             R_176_28  6.          
    x_4       R_176_29  9.             R_176_30  3.          
    x_4       R_176_31  7.          
    x_5       OBJROW     -95.          R_176_0   9.          
    x_5       R_176_1   9.             R_176_2   3.          
    x_5       R_176_3   4.             R_176_4   6.          
    x_5       R_176_5   10.            R_176_6   8.          
    x_5       R_176_7   1.             R_176_9   3.          
    x_5       R_176_10  1.             R_176_11  7.          
    x_5       R_176_12  7.             R_176_13  8.          
    x_5       R_176_14  9.             R_176_15  2.          
    x_5       R_176_16  4.             R_176_17  4.          
    x_5       R_176_18  7.             R_176_20  1.          
    x_5       R_176_21  9.             R_176_22  8.          
    x_5       R_176_23  2.             R_176_24  4.          
    x_5       R_176_25  10.            R_176_26  4.          
    x_5       R_176_28  9.             R_176_29  4.          
    x_5       R_176_30  10.            R_176_31  8.          
    x_6       OBJROW     -86.          R_176_1   10.         
    x_6       R_176_2   8.             R_176_3   10.         
    x_6       R_176_4   4.             R_176_6   6.          
    x_6       R_176_7   8.             R_176_8   2.          
    x_6       R_176_9   8.             R_176_12  9.          
    x_6       R_176_13  2.             R_176_14  6.          
    x_6       R_176_15  7.             R_176_16  3.          
    x_6       R_176_17  8.             R_176_18  8.          
    x_6       R_176_19  3.             R_176_20  9.          
    x_6       R_176_21  1.             R_176_22  9.          
    x_6       R_176_24  4.             R_176_26  3.          
    x_6       R_176_27  9.             R_176_28  5.          
    x_6       R_176_29  6.             R_176_30  5.          
    x_6       R_176_31  7.          
    x_7       OBJROW     -40.          R_176_0   2.          
    x_7       R_176_1   4.             R_176_2   9.          
    x_7       R_176_4   9.             R_176_5   5.          
    x_7       R_176_6   8.             R_176_7   9.          
    x_7       R_176_8   2.             R_176_9   7.          
    x_7       R_176_11  6.             R_176_12  8.          
    x_7       R_176_13  8.             R_176_14  5.          
    x_7       R_176_15  3.             R_176_17  4.          
    x_7       R_176_19  2.             R_176_21  6.          
    x_7       R_176_22  3.             R_176_23  4.          
    x_7       R_176_24  9.             R_176_25  7.          
    x_7       R_176_27  5.             R_176_30  6.          
    x_7       R_176_31  5.          
    x_8       OBJROW     -33.          R_176_0   2.          
    x_8       R_176_1   7.             R_176_2   5.          
    x_8       R_176_4   8.             R_176_5   3.          
    x_8       R_176_6   7.             R_176_7   1.          
    x_8       R_176_8   3.             R_176_9   7.          
    x_8       R_176_10  6.             R_176_11  10.         
    x_8       R_176_12  5.             R_176_13  3.          
    x_8       R_176_14  4.             R_176_16  3.          
    x_8       R_176_17  6.             R_176_18  7.          
    x_8       R_176_19  2.             R_176_20  4.          
    x_8       R_176_21  10.            R_176_22  6.          
    x_8       R_176_23  10.            R_176_24  3.          
    x_8       R_176_25  2.             R_176_26  5.          
    x_8       R_176_27  9.             R_176_28  2.          
    x_8       R_176_29  10.            R_176_31  1.          
    x_9       OBJROW     -78.          R_176_0   8.          
    x_9       R_176_1   6.             R_176_2   10.         
    x_9       R_176_3   10.            R_176_4   8.          
    x_9       R_176_7   7.             R_176_8   8.          
    x_9       R_176_9   2.             R_176_10  10.         
    x_9       R_176_11  9.             R_176_13  5.          
    x_9       R_176_14  1.             R_176_15  6.          
    x_9       R_176_16  1.             R_176_17  2.          
    x_9       R_176_18  8.             R_176_19  8.          
    x_9       R_176_20  8.             R_176_21  1.          
    x_9       R_176_22  9.             R_176_23  1.          
    x_9       R_176_24  1.             R_176_26  9.          
    x_9       R_176_28  8.             R_176_29  9.          
    x_9       R_176_30  2.             R_176_31  1.          
    x_10      OBJROW     -28.          R_176_0   7.          
    x_10      R_176_1   7.             R_176_3   9.          
    x_10      R_176_4   3.             R_176_5   3.          
    x_10      R_176_6   4.             R_176_7   4.          
    x_10      R_176_8   7.             R_176_9   3.          
    x_10      R_176_10  5.             R_176_12  8.          
    x_10      R_176_13  9.             R_176_14  5.          
    x_10      R_176_15  3.             R_176_16  2.          
    x_10      R_176_17  9.             R_176_18  4.          
    x_10      R_176_19  10.            R_176_20  3.          
    x_10      R_176_21  5.             R_176_22  8.          
    x_10      R_176_23  4.             R_176_25  1.          
    x_10      R_176_26  2.             R_176_27  9.          
    x_10      R_176_29  2.          
    x_11      OBJROW     -78.          R_176_0   5.          
    x_11      R_176_2   6.             R_176_3   5.          
    x_11      R_176_5   2.             R_176_6   7.          
    x_11      R_176_7   1.             R_176_8   2.          
    x_11      R_176_9   5.             R_176_11  7.          
    x_11      R_176_12  9.             R_176_13  10.         
    x_11      R_176_14  4.             R_176_15  3.          
    x_11      R_176_16  8.             R_176_19  10.         
    x_11      R_176_20  4.             R_176_21  8.          
    x_11      R_176_22  8.             R_176_24  2.          
    x_11      R_176_25  10.            R_176_26  8.          
    x_11      R_176_27  10.            R_176_28  10.         
    x_11      R_176_30  5.          
    x_12      OBJROW     -5.           R_176_0   5.          
    x_12      R_176_1   1.             R_176_2   6.          
    x_12      R_176_3   9.             R_176_4   6.          
    x_12      R_176_6   8.             R_176_8   10.         
    x_12      R_176_9   4.             R_176_10  10.         
    x_12      R_176_11  2.             R_176_12  8.          
    x_12      R_176_14  8.             R_176_15  4.          
    x_12      R_176_16  5.             R_176_19  10.         
    x_12      R_176_20  6.             R_176_21  7.          
    x_12      R_176_22  4.             R_176_23  9.          
    x_12      R_176_24  4.             R_176_25  10.         
    x_12      R_176_26  7.             R_176_27  8.          
    x_12      R_176_28  8.             R_176_30  4.          
    x_12      R_176_31  9.          
    x_13      OBJROW     -75.          R_176_0   2.          
    x_13      R_176_1   9.             R_176_2   1.          
    x_13      R_176_3   7.             R_176_4   9.          
    x_13      R_176_5   6.             R_176_6   9.          
    x_13      R_176_8   2.             R_176_9   4.          
    x_13      R_176_10  1.             R_176_11  3.          
    x_13      R_176_12  4.             R_176_13  9.          
    x_13      R_176_14  3.             R_176_15  2.          
    x_13      R_176_16  9.             R_176_17  3.          
    x_13      R_176_18  3.             R_176_19  9.          
    x_13      R_176_20  8.             R_176_21  9.          
    x_13      R_176_22  6.             R_176_23  2.          
    x_13      R_176_24  2.             R_176_25  6.          
    x_13      R_176_26  5.             R_176_29  3.          
    x_13      R_176_30  6.             R_176_31  1.          
    x_14      OBJROW     -88.          R_176_0   9.          
    x_14      R_176_1   2.             R_176_2   9.          
    x_14      R_176_3   7.             R_176_4   4.          
    x_14      R_176_5   3.             R_176_6   1.          
    x_14      R_176_7   6.             R_176_8   5.          
    x_14      R_176_9   1.             R_176_11  4.          
    x_14      R_176_12  6.             R_176_13  10.         
    x_14      R_176_15  9.             R_176_16  1.          
    x_14      R_176_17  2.             R_176_18  5.          
    x_14      R_176_19  4.             R_176_20  9.          
    x_14      R_176_23  3.             R_176_24  3.          
    x_14      R_176_25  6.             R_176_26  10.         
    x_14      R_176_27  8.             R_176_29  8.          
    x_14      R_176_30  10.         
    x_15      OBJROW     -21.          R_176_1   5.          
    x_15      R_176_2   3.             R_176_3   10.         
    x_15      R_176_4   8.             R_176_5   4.          
    x_15      R_176_6   5.             R_176_7   6.          
    x_15      R_176_8   1.             R_176_10  1.          
    x_15      R_176_11  1.             R_176_13  10.         
    x_15      R_176_14  5.             R_176_15  8.          
    x_15      R_176_16  10.            R_176_17  4.          
    x_15      R_176_18  9.             R_176_19  5.          
    x_15      R_176_21  7.             R_176_22  4.          
    x_15      R_176_23  7.             R_176_24  10.         
    x_15      R_176_25  9.             R_176_26  7.          
    x_15      R_176_27  6.             R_176_29  3.          
    x_15      R_176_30  3.             R_176_31  8.          
RHS
    RHS       R_176_0   38.            R_176_1   68.         
    RHS       R_176_2   49.            R_176_3   56.         
    RHS       R_176_4   67.            R_176_5   54.         
    RHS       R_176_6   49.            R_176_7   56.         
    RHS       R_176_8   17.            R_176_9   67.         
    RHS       R_176_10  21.            R_176_11  42.         
    RHS       R_176_12  74.            R_176_13  28.         
    RHS       R_176_14  30.            R_176_15  17.         
    RHS       R_176_16  62.            R_176_17  57.         
    RHS       R_176_18  56.            R_176_19  67.         
    RHS       R_176_20  38.            R_176_21  57.         
    RHS       R_176_22  26.            R_176_23  83.         
    RHS       R_176_24  77.            R_176_25  67.         
    RHS       R_176_26  46.            R_176_27  72.         
    RHS       R_176_28  28.            R_176_29  18.         
    RHS       R_176_30  60.            R_176_31  19.         
BOUNDS
 UI BOUND     x_0       100.        
 UI BOUND     x_1       100.        
 UI BOUND     x_2       100.        
 UI BOUND     x_3       100.        
 UI BOUND     x_4       100.        
 UI BOUND     x_5       100.        
 UI BOUND     x_6       100.        
 UI BOUND     x_7       100.        
 UI BOUND     x_8       100.        
 UI BOUND     x_9       100.        
 UI BOUND     x_10      100.        
 UI BOUND     x_11      100.        
 UI BOUND     x_12      100.        
 UI BOUND     x_13      100.        
 UI BOUND     x_14      100.        
 UI BOUND     x_15      100.        
ENDATA
